(set-info :smt-lib-version 2.6)
(set-logic QF_NIA)
(set-info :source |AProve team, see http://aprove.informatik.rwth-aachen.de/, submitted for SMT-COMP 2014|)
(set-info :category "industrial")
(set-info :status sat)
(declare-fun a__4 () Int)
(declare-fun a__2 () Int)
(declare-fun a__7 () Int)
(declare-fun a__10 () Int)
(declare-fun a__12 () Int)
(declare-fun a__15 () Int)
(declare-fun a__17 () Int)
(declare-fun a__20 () Int)
(declare-fun a__22 () Int)
(declare-fun a__26 () Int)
(declare-fun a__29 () Int)
(declare-fun a__31 () Int)
(declare-fun a__35 () Int)
(declare-fun a__38 () Int)
(declare-fun a__40 () Int)
(declare-fun a__44 () Int)
(declare-fun a__47 () Int)
(declare-fun a__49 () Int)
(declare-fun a__52 () Int)
(declare-fun a__54 () Int)
(declare-fun a__56 () Int)
(declare-fun a__58 () Int)
(declare-fun a__63 () Int)
(declare-fun a__64 () Int)
(declare-fun a__66 () Int)
(declare-fun a__3 () Int)
(declare-fun a__6 () Int)
(declare-fun a__9 () Int)
(declare-fun a__11 () Int)
(declare-fun a__14 () Int)
(declare-fun a__16 () Int)
(declare-fun a__19 () Int)
(declare-fun a__21 () Int)
(declare-fun a__25 () Int)
(declare-fun a__28 () Int)
(declare-fun a__30 () Int)
(declare-fun a__34 () Int)
(declare-fun a__37 () Int)
(declare-fun a__39 () Int)
(declare-fun a__43 () Int)
(declare-fun a__46 () Int)
(declare-fun a__48 () Int)
(declare-fun a__51 () Int)
(declare-fun a__53 () Int)
(declare-fun a__55 () Int)
(declare-fun a__57 () Int)
(declare-fun a__62 () Int)
(declare-fun a__65 () Int)
(assert (and (>= (+ (* a__4 a__2) (* (- 0 1) a__2)) 0) (>= (+ (* a__7 a__2) (* (- 0 1) a__2)) 0) (>= (+ (* a__10 a__2) (* (- 0 1) a__2)) 0) (>= (+ (* a__12 a__2) (* (- 0 1) a__2)) 0) (>= (+ (* a__15 a__2) (* (- 0 1) a__2)) 0) (>= (+ (* a__17 a__2) (* (- 0 1) a__2)) 0) (>= (+ (* a__20 a__2) (* (- 0 1) a__2)) 0) (>= (+ (* a__22 a__2) (* (- 0 1) a__2)) 0) (>= (+ (* a__26 a__2) (* (- 0 1) a__2)) 0) (>= (+ (* a__29 a__2) (* (- 0 1) a__2)) 0) (>= (+ (* a__31 a__2) (* (- 0 1) a__2)) 0) (>= (+ (* a__35 a__2) (* (- 0 1) a__2)) 0) (>= (+ (* a__38 a__2) (* (- 0 1) a__2)) 0) (>= (+ (* a__40 a__2) (* (- 0 1) a__2)) 0) (>= (+ (* a__44 a__2) (* (- 0 1) a__2)) 0) (>= (+ (* a__47 a__2) (* (- 0 1) a__2)) 0) (>= (+ (* a__49 a__2) (* (- 0 1) a__2)) 0) (>= (+ (* a__52 a__2) (* (- 0 1) a__2)) 0) (>= (+ (* a__54 a__2) (* (- 0 1) a__2)) 0) (>= (+ (* a__56 a__2) (* (- 0 1) a__2)) 0) (>= (+ (* a__58 a__2) (* (- 0 1) a__2)) 0) (>= (+ (* a__63 a__2) (* (- 0 1) a__2)) 0) (>= (+ (* a__64 a__2) (* (- 0 1) a__2)) 0) (>= (+ (* a__66 a__2) (* (- 0 1) a__2)) 0) (>= (* a__3 a__2) 0) (>= (* a__6 a__2) 0) (>= (* a__9 a__2) 0) (>= (* a__11 a__2) 0) (>= (* a__14 a__2) 0) (>= (* a__16 a__2) 0) (>= (* a__19 a__2) 0) (>= (* a__21 a__2) 0) (>= (* a__25 a__2) 0) (>= (* a__28 a__2) 0) (>= (* a__30 a__2) 0) (>= (* a__34 a__2) 0) (>= (* a__37 a__2) 0) (>= (* a__39 a__2) 0) (>= (* a__43 a__2) 0) (>= (* a__46 a__2) 0) (>= (* a__48 a__2) 0) (>= (* a__51 a__2) 0) (>= (* a__53 a__2) 0) (>= (* a__55 a__2) 0) (>= (* a__57 a__2) 0) (>= (* a__62 a__2) 0) (>= (* a__65 a__2) 0) (not (and (= (* a__3 a__2) 0) (= (* a__6 a__2) 0) (= (* a__9 a__2) 0) (= (* a__11 a__2) 0) (= (* a__14 a__2) 0) (= (* a__16 a__2) 0) (= (* a__19 a__2) 0) (= (* a__21 a__2) 0) (= (* a__25 a__2) 0) (= (* a__28 a__2) 0) (= (* a__30 a__2) 0) (= (* a__34 a__2) 0) (= (* a__37 a__2) 0) (= (* a__39 a__2) 0) (= (* a__43 a__2) 0) (= (* a__46 a__2) 0) (= (* a__48 a__2) 0) (= (* a__51 a__2) 0) (= (* a__53 a__2) 0) (= (* a__55 a__2) 0) (= (* a__57 a__2) 0) (= (* a__62 a__2) 0) (= (* a__65 a__2) 0))) (>= a__4 0) (>= a__2 0) (>= a__7 0) (>= a__10 0) (>= a__12 0) (>= a__15 0) (>= a__17 0) (>= a__20 0) (>= a__22 0) (>= a__26 0) (>= a__29 0) (>= a__31 0) (>= a__35 0) (>= a__38 0) (>= a__40 0) (>= a__44 0) (>= a__47 0) (>= a__49 0) (>= a__52 0) (>= a__54 0) (>= a__56 0) (>= a__58 0) (>= a__63 0) (>= a__64 0) (>= a__66 0) (>= a__3 0) (>= a__6 0) (>= a__9 0) (>= a__11 0) (>= a__14 0) (>= a__16 0) (>= a__19 0) (>= a__21 0) (>= a__25 0) (>= a__28 0) (>= a__30 0) (>= a__34 0) (>= a__37 0) (>= a__39 0) (>= a__43 0) (>= a__46 0) (>= a__48 0) (>= a__51 0) (>= a__53 0) (>= a__55 0) (>= a__57 0) (>= a__62 0) (>= a__65 0)))
(assert (<= a__10 100))
(assert (<= a__11 100))
(assert (<= a__12 100))
(assert (<= a__14 100))
(assert (<= a__15 100))
(assert (<= a__16 100))
(assert (<= a__17 100))
(assert (<= a__19 100))
(assert (<= a__2 100))
(assert (<= a__20 100))
(assert (<= a__21 100))
(assert (<= a__22 100))
(assert (<= a__25 100))
(assert (<= a__26 100))
(assert (<= a__28 100))
(assert (<= a__29 100))
(assert (<= a__3 100))
(assert (<= a__30 100))
(assert (<= a__31 100))
(assert (<= a__34 100))
(assert (<= a__35 100))
(assert (<= a__37 100))
(assert (<= a__38 100))
(assert (<= a__39 100))
(assert (<= a__4 100))
(assert (<= a__40 100))
(assert (<= a__43 100))
(assert (<= a__44 100))
(assert (<= a__46 100))
(assert (<= a__47 100))
(assert (<= a__48 100))
(assert (<= a__49 100))
(assert (<= a__51 100))
(assert (<= a__52 100))
(assert (<= a__53 100))
(assert (<= a__54 100))
(assert (<= a__55 100))
(assert (<= a__56 100))
(assert (<= a__57 100))
(assert (<= a__58 100))
(assert (<= a__6 100))
(assert (<= a__62 100))
(assert (<= a__63 100))
(assert (<= a__64 100))
(assert (<= a__65 100))
(assert (<= a__66 100))
(assert (<= a__7 100))
(assert (<= a__9 100))
(check-sat)
;;(get-assignment)
;;(get-model)
(exit)
